c ind 1 111 112 113 114 115 116 117 118 119 120 121 122 123 124 125 126 0
p cnf 240 1231
2 -4 0
3 -4 0
-2 -3 4 0
2 -5 0
-3 -5 0
-2 3 5 0
2 -7 0
6 -7 0
-2 -6 7 0
2 -9 0
6 -9 0
8 -9 0
-2 -6 -8 9 0
2 -10 0
6 -10 0
-8 -10 0
-2 -6 8 10 0
6 -11 0
2 -11 0
-2 -6 11 0
6 -13 0
2 -13 0
12 -13 0
-2 -6 -12 13 0
6 -15 0
2 -15 0
12 -15 0
14 -15 0
-2 -6 -12 -14 15 0
6 -16 0
2 -16 0
12 -16 0
-14 -16 0
-2 -6 -12 14 16 0
12 -17 0
6 -17 0
2 -17 0
-2 -6 -12 17 0
12 -19 0
6 -19 0
2 -19 0
18 -19 0
-2 -6 -12 -18 19 0
12 -21 0
6 -21 0
2 -21 0
18 -21 0
20 -21 0
-2 -6 -12 -18 -20 21 0
12 -22 0
6 -22 0
2 -22 0
18 -22 0
-20 -22 0
-2 -6 -12 -18 20 22 0
18 -23 0
12 -23 0
6 -23 0
2 -23 0
-2 -6 -12 -18 23 0
18 -25 0
12 -25 0
6 -25 0
2 -25 0
24 -25 0
-2 -6 -12 -18 -24 25 0
18 -27 0
12 -27 0
6 -27 0
2 -27 0
24 -27 0
26 -27 0
-2 -6 -12 -18 -24 -26 27 0
18 -28 0
12 -28 0
6 -28 0
2 -28 0
24 -28 0
-26 -28 0
-2 -6 -12 -18 -24 26 28 0
24 -29 0
18 -29 0
12 -29 0
6 -29 0
2 -29 0
-2 -6 -12 -18 -24 29 0
24 -31 0
18 -31 0
12 -31 0
6 -31 0
2 -31 0
30 -31 0
-2 -6 -12 -18 -24 -30 31 0
24 -33 0
18 -33 0
12 -33 0
6 -33 0
2 -33 0
30 -33 0
32 -33 0
-2 -6 -12 -18 -24 -30 -32 33 0
24 -34 0
18 -34 0
12 -34 0
6 -34 0
2 -34 0
30 -34 0
-32 -34 0
-2 -6 -12 -18 -24 -30 32 34 0
24 -36 0
18 -36 0
12 -36 0
6 -36 0
2 -36 0
30 -36 0
-32 -36 0
35 -36 0
-2 -6 -12 -18 -24 -30 32 -35 36 0
24 -37 0
18 -37 0
12 -37 0
6 -37 0
2 -37 0
30 -37 0
-32 -37 0
-35 -37 0
-2 -6 -12 -18 -24 -30 32 35 37 0
24 -39 0
18 -39 0
12 -39 0
6 -39 0
2 -39 0
30 -39 0
-32 -39 0
-35 -39 0
38 -39 0
-2 -6 -12 -18 -24 -30 32 35 -38 39 0
24 -40 0
18 -40 0
12 -40 0
6 -40 0
2 -40 0
30 -40 0
-32 -40 0
-35 -40 0
-38 -40 0
-2 -6 -12 -18 -24 -30 32 35 38 40 0
24 -42 0
18 -42 0
12 -42 0
6 -42 0
2 -42 0
30 -42 0
-32 -42 0
-35 -42 0
-38 -42 0
41 -42 0
-2 -6 -12 -18 -24 -30 32 35 38 -41 42 0
24 -43 0
18 -43 0
12 -43 0
6 -43 0
2 -43 0
30 -43 0
-32 -43 0
-35 -43 0
-38 -43 0
-41 -43 0
-2 -6 -12 -18 -24 -30 32 35 38 41 43 0
24 -45 0
18 -45 0
12 -45 0
6 -45 0
2 -45 0
30 -45 0
-32 -45 0
-35 -45 0
-38 -45 0
-41 -45 0
44 -45 0
-2 -6 -12 -18 -24 -30 32 35 38 41 -44 45 0
24 -47 0
18 -47 0
12 -47 0
6 -47 0
2 -47 0
30 -47 0
-32 -47 0
-35 -47 0
-38 -47 0
-41 -47 0
44 -47 0
46 -47 0
-2 -6 -12 -18 -24 -30 32 35 38 41 -44 -46 47 0
24 -48 0
18 -48 0
12 -48 0
6 -48 0
2 -48 0
30 -48 0
-32 -48 0
-35 -48 0
-38 -48 0
-41 -48 0
44 -48 0
-46 -48 0
-2 -6 -12 -18 -24 -30 32 35 38 41 -44 46 48 0
24 -50 0
18 -50 0
12 -50 0
6 -50 0
2 -50 0
30 -50 0
-32 -50 0
-35 -50 0
-38 -50 0
-41 -50 0
44 -50 0
-46 -50 0
49 -50 0
-2 -6 -12 -18 -24 -30 32 35 38 41 -44 46 -49 50 0
24 -52 0
18 -52 0
12 -52 0
6 -52 0
2 -52 0
30 -52 0
-32 -52 0
-35 -52 0
-38 -52 0
-41 -52 0
44 -52 0
-46 -52 0
49 -52 0
51 -52 0
-2 -6 -12 -18 -24 -30 32 35 38 41 -44 46 -49 -51 52 0
24 -53 0
18 -53 0
12 -53 0
6 -53 0
2 -53 0
30 -53 0
-32 -53 0
-35 -53 0
-38 -53 0
-41 -53 0
44 -53 0
-46 -53 0
49 -53 0
-51 -53 0
-2 -6 -12 -18 -24 -30 32 35 38 41 -44 46 -49 51 53 0
24 -55 0
18 -55 0
12 -55 0
6 -55 0
2 -55 0
30 -55 0
-32 -55 0
-35 -55 0
-38 -55 0
-41 -55 0
44 -55 0
-46 -55 0
49 -55 0
-51 -55 0
54 -55 0
-2 -6 -12 -18 -24 -30 32 35 38 41 -44 46 -49 51 -54 55 0
24 -57 0
18 -57 0
12 -57 0
6 -57 0
2 -57 0
30 -57 0
-32 -57 0
-35 -57 0
-38 -57 0
-41 -57 0
44 -57 0
-46 -57 0
49 -57 0
-51 -57 0
54 -57 0
56 -57 0
-2 -6 -12 -18 -24 -30 32 35 38 41 -44 46 -49 51 -54 -56 57 0
24 -58 0
18 -58 0
12 -58 0
6 -58 0
2 -58 0
30 -58 0
-32 -58 0
-35 -58 0
-38 -58 0
-41 -58 0
44 -58 0
-46 -58 0
49 -58 0
-51 -58 0
54 -58 0
-56 -58 0
-2 -6 -12 -18 -24 -30 32 35 38 41 -44 46 -49 51 -54 56 58 0
-41 -59 0
-46 -59 0
-51 -59 0
-32 -59 0
-35 -59 0
-38 -59 0
44 -59 0
49 -59 0
54 -59 0
30 -59 0
24 -59 0
18 -59 0
12 -59 0
6 -59 0
2 -59 0
-2 -6 -12 -18 -24 -30 32 35 38 41 -44 46 -49 51 -54 59 0
24 -60 0
18 -60 0
12 -60 0
6 -60 0
2 -60 0
30 -60 0
-32 -60 0
-35 -60 0
-38 -60 0
-41 -60 0
44 -60 0
-46 -60 0
49 -60 0
-51 -60 0
-54 -60 0
-2 -6 -12 -18 -24 -30 32 35 38 41 -44 46 -49 51 54 60 0
-41 -61 0
-46 -61 0
-32 -61 0
-35 -61 0
-38 -61 0
44 -61 0
49 -61 0
30 -61 0
24 -61 0
18 -61 0
12 -61 0
6 -61 0
2 -61 0
-2 -6 -12 -18 -24 -30 32 35 38 41 -44 46 -49 61 0
24 -62 0
18 -62 0
12 -62 0
6 -62 0
2 -62 0
30 -62 0
-32 -62 0
-35 -62 0
-38 -62 0
-41 -62 0
44 -62 0
-46 -62 0
-49 -62 0
-2 -6 -12 -18 -24 -30 32 35 38 41 -44 46 49 62 0
24 -64 0
18 -64 0
12 -64 0
6 -64 0
2 -64 0
30 -64 0
-32 -64 0
-35 -64 0
-38 -64 0
-41 -64 0
44 -64 0
-46 -64 0
-49 -64 0
63 -64 0
-2 -6 -12 -18 -24 -30 32 35 38 41 -44 46 49 -63 64 0
24 -66 0
18 -66 0
12 -66 0
6 -66 0
2 -66 0
30 -66 0
-32 -66 0
-35 -66 0
-38 -66 0
-41 -66 0
44 -66 0
-46 -66 0
-49 -66 0
63 -66 0
65 -66 0
-2 -6 -12 -18 -24 -30 32 35 38 41 -44 46 49 -63 -65 66 0
24 -67 0
18 -67 0
12 -67 0
6 -67 0
2 -67 0
30 -67 0
-32 -67 0
-35 -67 0
-38 -67 0
-41 -67 0
44 -67 0
-46 -67 0
-49 -67 0
63 -67 0
-65 -67 0
-2 -6 -12 -18 -24 -30 32 35 38 41 -44 46 49 -63 65 67 0
24 -69 0
18 -69 0
12 -69 0
6 -69 0
2 -69 0
30 -69 0
-32 -69 0
-35 -69 0
-38 -69 0
-41 -69 0
44 -69 0
-46 -69 0
-49 -69 0
63 -69 0
-65 -69 0
68 -69 0
-2 -6 -12 -18 -24 -30 32 35 38 41 -44 46 49 -63 65 -68 69 0
24 -71 0
18 -71 0
12 -71 0
6 -71 0
2 -71 0
30 -71 0
-32 -71 0
-35 -71 0
-38 -71 0
-41 -71 0
44 -71 0
-46 -71 0
-49 -71 0
63 -71 0
-65 -71 0
68 -71 0
70 -71 0
-2 -6 -12 -18 -24 -30 32 35 38 41 -44 46 49 -63 65 -68 -70 71 0
24 -72 0
18 -72 0
12 -72 0
6 -72 0
2 -72 0
30 -72 0
-32 -72 0
-35 -72 0
-38 -72 0
-41 -72 0
44 -72 0
-46 -72 0
-49 -72 0
63 -72 0
-65 -72 0
68 -72 0
-70 -72 0
-2 -6 -12 -18 -24 -30 32 35 38 41 -44 46 49 -63 65 -68 70 72 0
-41 -73 0
-46 -73 0
-49 -73 0
-65 -73 0
-32 -73 0
-35 -73 0
-38 -73 0
44 -73 0
63 -73 0
68 -73 0
30 -73 0
24 -73 0
18 -73 0
12 -73 0
6 -73 0
2 -73 0
-2 -6 -12 -18 -24 -30 32 35 38 41 -44 46 49 -63 65 -68 73 0
24 -74 0
18 -74 0
12 -74 0
6 -74 0
2 -74 0
30 -74 0
-32 -74 0
-35 -74 0
-38 -74 0
-41 -74 0
44 -74 0
-46 -74 0
-49 -74 0
63 -74 0
-65 -74 0
-68 -74 0
-2 -6 -12 -18 -24 -30 32 35 38 41 -44 46 49 -63 65 68 74 0
-41 -75 0
-46 -75 0
-49 -75 0
-32 -75 0
-35 -75 0
-38 -75 0
44 -75 0
63 -75 0
30 -75 0
24 -75 0
18 -75 0
12 -75 0
6 -75 0
2 -75 0
-2 -6 -12 -18 -24 -30 32 35 38 41 -44 46 49 -63 75 0
24 -76 0
18 -76 0
12 -76 0
6 -76 0
2 -76 0
30 -76 0
-32 -76 0
-35 -76 0
-38 -76 0
-41 -76 0
44 -76 0
-46 -76 0
-49 -76 0
-63 -76 0
-2 -6 -12 -18 -24 -30 32 35 38 41 -44 46 49 63 76 0
-41 -77 0
-32 -77 0
-35 -77 0
-38 -77 0
44 -77 0
30 -77 0
24 -77 0
18 -77 0
12 -77 0
6 -77 0
2 -77 0
-2 -6 -12 -18 -24 -30 32 35 38 41 -44 77 0
24 -78 0
18 -78 0
12 -78 0
6 -78 0
2 -78 0
30 -78 0
-32 -78 0
-35 -78 0
-38 -78 0
-41 -78 0
-44 -78 0
-2 -6 -12 -18 -24 -30 32 35 38 41 44 78 0
24 -80 0
18 -80 0
12 -80 0
6 -80 0
2 -80 0
30 -80 0
-32 -80 0
-35 -80 0
-38 -80 0
-41 -80 0
-44 -80 0
79 -80 0
-2 -6 -12 -18 -24 -30 32 35 38 41 44 -79 80 0
24 -82 0
18 -82 0
12 -82 0
6 -82 0
2 -82 0
30 -82 0
-32 -82 0
-35 -82 0
-38 -82 0
-41 -82 0
-44 -82 0
79 -82 0
81 -82 0
-2 -6 -12 -18 -24 -30 32 35 38 41 44 -79 -81 82 0
24 -83 0
18 -83 0
12 -83 0
6 -83 0
2 -83 0
30 -83 0
-32 -83 0
-35 -83 0
-38 -83 0
-41 -83 0
-44 -83 0
79 -83 0
-81 -83 0
-2 -6 -12 -18 -24 -30 32 35 38 41 44 -79 81 83 0
24 -85 0
18 -85 0
12 -85 0
6 -85 0
2 -85 0
30 -85 0
-32 -85 0
-35 -85 0
-38 -85 0
-41 -85 0
-44 -85 0
79 -85 0
-81 -85 0
84 -85 0
-2 -6 -12 -18 -24 -30 32 35 38 41 44 -79 81 -84 85 0
24 -86 0
18 -86 0
12 -86 0
6 -86 0
2 -86 0
30 -86 0
-32 -86 0
-35 -86 0
-38 -86 0
-41 -86 0
-44 -86 0
79 -86 0
-81 -86 0
-84 -86 0
-2 -6 -12 -18 -24 -30 32 35 38 41 44 -79 81 84 86 0
24 -88 0
18 -88 0
12 -88 0
6 -88 0
2 -88 0
30 -88 0
-32 -88 0
-35 -88 0
-38 -88 0
-41 -88 0
-44 -88 0
79 -88 0
-81 -88 0
-84 -88 0
87 -88 0
-2 -6 -12 -18 -24 -30 32 35 38 41 44 -79 81 84 -87 88 0
24 -90 0
18 -90 0
12 -90 0
6 -90 0
2 -90 0
30 -90 0
-32 -90 0
-35 -90 0
-38 -90 0
-41 -90 0
-44 -90 0
79 -90 0
-81 -90 0
-84 -90 0
87 -90 0
89 -90 0
-2 -6 -12 -18 -24 -30 32 35 38 41 44 -79 81 84 -87 -89 90 0
24 -91 0
18 -91 0
12 -91 0
6 -91 0
2 -91 0
30 -91 0
-32 -91 0
-35 -91 0
-38 -91 0
-41 -91 0
-44 -91 0
79 -91 0
-81 -91 0
-84 -91 0
87 -91 0
-89 -91 0
-2 -6 -12 -18 -24 -30 32 35 38 41 44 -79 81 84 -87 89 91 0
-41 -92 0
-44 -92 0
-81 -92 0
-84 -92 0
-32 -92 0
-35 -92 0
-38 -92 0
79 -92 0
87 -92 0
30 -92 0
24 -92 0
18 -92 0
12 -92 0
6 -92 0
2 -92 0
-2 -6 -12 -18 -24 -30 32 35 38 41 44 -79 81 84 -87 92 0
24 -93 0
18 -93 0
12 -93 0
6 -93 0
2 -93 0
30 -93 0
-32 -93 0
-35 -93 0
-38 -93 0
-41 -93 0
-44 -93 0
79 -93 0
-81 -93 0
-84 -93 0
-87 -93 0
-2 -6 -12 -18 -24 -30 32 35 38 41 44 -79 81 84 87 93 0
24 -95 0
18 -95 0
12 -95 0
6 -95 0
2 -95 0
30 -95 0
-32 -95 0
-35 -95 0
-38 -95 0
-41 -95 0
-44 -95 0
79 -95 0
-81 -95 0
-84 -95 0
-87 -95 0
94 -95 0
-2 -6 -12 -18 -24 -30 32 35 38 41 44 -79 81 84 87 -94 95 0
24 -97 0
18 -97 0
12 -97 0
6 -97 0
2 -97 0
30 -97 0
-32 -97 0
-35 -97 0
-38 -97 0
-41 -97 0
-44 -97 0
79 -97 0
-81 -97 0
-84 -97 0
-87 -97 0
94 -97 0
96 -97 0
-2 -6 -12 -18 -24 -30 32 35 38 41 44 -79 81 84 87 -94 -96 97 0
24 -98 0
18 -98 0
12 -98 0
6 -98 0
2 -98 0
30 -98 0
-32 -98 0
-35 -98 0
-38 -98 0
-41 -98 0
-44 -98 0
79 -98 0
-81 -98 0
-84 -98 0
-87 -98 0
94 -98 0
-96 -98 0
-2 -6 -12 -18 -24 -30 32 35 38 41 44 -79 81 84 87 -94 96 98 0
-41 -99 0
-44 -99 0
-81 -99 0
-84 -99 0
-87 -99 0
-32 -99 0
-35 -99 0
-38 -99 0
79 -99 0
94 -99 0
30 -99 0
24 -99 0
18 -99 0
12 -99 0
6 -99 0
2 -99 0
-2 -6 -12 -18 -24 -30 32 35 38 41 44 -79 81 84 87 -94 99 0
24 -100 0
18 -100 0
12 -100 0
6 -100 0
2 -100 0
30 -100 0
-32 -100 0
-35 -100 0
-38 -100 0
-41 -100 0
-44 -100 0
79 -100 0
-81 -100 0
-84 -100 0
-87 -100 0
-94 -100 0
-2 -6 -12 -18 -24 -30 32 35 38 41 44 -79 81 84 87 94 100 0
-41 -101 0
-44 -101 0
-32 -101 0
-35 -101 0
-38 -101 0
79 -101 0
30 -101 0
24 -101 0
18 -101 0
12 -101 0
6 -101 0
2 -101 0
-2 -6 -12 -18 -24 -30 32 35 38 41 44 -79 101 0
24 -102 0
18 -102 0
12 -102 0
6 -102 0
2 -102 0
30 -102 0
-32 -102 0
-35 -102 0
-38 -102 0
-41 -102 0
-44 -102 0
-79 -102 0
-2 -6 -12 -18 -24 -30 32 35 38 41 44 79 102 0
24 -104 0
18 -104 0
12 -104 0
6 -104 0
2 -104 0
30 -104 0
-32 -104 0
-35 -104 0
-38 -104 0
-41 -104 0
-44 -104 0
-79 -104 0
103 -104 0
-2 -6 -12 -18 -24 -30 32 35 38 41 44 79 -103 104 0
24 -106 0
18 -106 0
12 -106 0
6 -106 0
2 -106 0
30 -106 0
-32 -106 0
-35 -106 0
-38 -106 0
-41 -106 0
-44 -106 0
-79 -106 0
103 -106 0
105 -106 0
-2 -6 -12 -18 -24 -30 32 35 38 41 44 79 -103 -105 106 0
24 -107 0
18 -107 0
12 -107 0
6 -107 0
2 -107 0
30 -107 0
-32 -107 0
-35 -107 0
-38 -107 0
-41 -107 0
-44 -107 0
-79 -107 0
103 -107 0
-105 -107 0
-2 -6 -12 -18 -24 -30 32 35 38 41 44 79 -103 105 107 0
-41 -108 0
-44 -108 0
-79 -108 0
-32 -108 0
-35 -108 0
-38 -108 0
103 -108 0
30 -108 0
24 -108 0
18 -108 0
12 -108 0
6 -108 0
2 -108 0
-2 -6 -12 -18 -24 -30 32 35 38 41 44 79 -103 108 0
24 -109 0
18 -109 0
12 -109 0
6 -109 0
2 -109 0
30 -109 0
-32 -109 0
-35 -109 0
-38 -109 0
-41 -109 0
-44 -109 0
-79 -109 0
-103 -109 0
-2 -6 -12 -18 -24 -30 32 35 38 41 44 79 103 109 0
110 0
112 -127 0
-112 127 0
-1 -127 -128 0
1 127 -128 0
-1 127 128 0
1 -127 128 0
-128 0
115 -130 0
-115 130 0
-1 131 0
-130 131 0
1 130 -131 0
-2 -131 -132 0
2 131 -132 0
-2 131 132 0
2 -131 132 0
-132 0
113 -133 0
-113 133 0
-3 -133 -134 0
3 133 -134 0
-3 133 134 0
3 -133 134 0
-134 0
119 -136 0
-119 136 0
-3 137 0
-136 137 0
3 136 -137 0
-6 -137 -138 0
6 137 -138 0
-6 137 138 0
6 -137 138 0
-138 0
114 -139 0
-114 139 0
-8 -139 -140 0
8 139 -140 0
-8 139 140 0
8 -139 140 0
-140 0
123 -142 0
-123 142 0
-8 143 0
-142 143 0
8 142 -143 0
-12 -143 -144 0
12 143 -144 0
-12 143 144 0
12 -143 144 0
-144 0
117 -145 0
-117 145 0
-14 -145 -146 0
14 145 -146 0
-14 145 146 0
14 -145 146 0
-146 0
120 -148 0
-120 148 0
-14 149 0
-148 149 0
14 148 -149 0
-18 -149 -150 0
18 149 -150 0
-18 149 150 0
18 -149 150 0
-150 0
118 -151 0
-118 151 0
-20 -151 -152 0
20 151 -152 0
-20 151 152 0
20 -151 152 0
-152 0
124 -154 0
-124 154 0
-20 155 0
-154 155 0
20 154 -155 0
-24 -155 -156 0
24 155 -156 0
-24 155 156 0
24 -155 156 0
-156 0
122 -157 0
-122 157 0
-26 -157 -158 0
26 157 -158 0
-26 157 158 0
26 -157 158 0
-158 0
125 -160 0
-125 160 0
-26 161 0
-160 161 0
26 160 -161 0
-30 -161 -162 0
30 161 -162 0
-30 161 162 0
30 -161 162 0
-162 0
-116 163 0
116 -163 0
-116 -164 0
116 -164 0
116 165 0
-164 165 0
-116 164 -165 0
-32 -165 -166 0
32 165 -166 0
-32 165 166 0
32 -165 166 0
-166 0
-126 167 0
126 -167 0
-126 -168 0
126 -168 0
126 169 0
-168 169 0
-126 168 -169 0
-35 -169 -170 0
35 169 -170 0
-35 169 170 0
35 -169 170 0
-170 0
-111 171 0
111 -171 0
-111 -172 0
111 -172 0
111 173 0
-172 173 0
-111 172 -173 0
-38 -173 -174 0
38 173 -174 0
-38 173 174 0
38 -173 174 0
-174 0
-121 175 0
121 -175 0
-121 -176 0
121 -176 0
121 177 0
-176 177 0
-121 176 -177 0
-41 -177 -178 0
41 177 -178 0
-41 177 178 0
41 -177 178 0
-178 0
-124 179 0
124 -179 0
-124 -180 0
124 -180 0
124 181 0
-180 181 0
-124 180 -181 0
-44 -181 -182 0
44 181 -182 0
-44 181 182 0
44 -181 182 0
-182 0
-118 183 0
118 -183 0
-118 -184 0
118 -184 0
118 185 0
-184 185 0
-118 184 -185 0
-46 -185 -186 0
46 185 -186 0
-46 185 186 0
46 -185 186 0
-186 0
-122 187 0
122 -187 0
-122 -188 0
122 -188 0
122 189 0
-188 189 0
-122 188 -189 0
-49 -189 -190 0
49 189 -190 0
-49 189 190 0
49 -189 190 0
-190 0
-125 191 0
125 -191 0
-125 -192 0
125 -192 0
125 193 0
-192 193 0
-125 192 -193 0
-51 -193 -194 0
51 193 -194 0
-51 193 194 0
51 -193 194 0
-194 0
-115 195 0
115 -195 0
-115 -196 0
115 -196 0
115 197 0
-196 197 0
-115 196 -197 0
-54 -197 -198 0
54 197 -198 0
-54 197 198 0
54 -197 198 0
-198 0
-112 199 0
112 -199 0
-112 -200 0
112 -200 0
112 201 0
-200 201 0
-112 200 -201 0
-56 -201 -202 0
56 201 -202 0
-56 201 202 0
56 -201 202 0
-202 0
-119 203 0
119 -203 0
-119 -204 0
119 -204 0
119 205 0
-204 205 0
-119 204 -205 0
-63 -205 -206 0
63 205 -206 0
-63 205 206 0
63 -205 206 0
-206 0
-113 207 0
113 -207 0
-113 -208 0
113 -208 0
113 209 0
-208 209 0
-113 208 -209 0
-65 -209 -210 0
65 209 -210 0
-65 209 210 0
65 -209 210 0
-210 0
-68 -197 -211 0
68 197 -211 0
-68 197 211 0
68 -197 211 0
-211 0
-70 -201 -212 0
70 201 -212 0
-70 201 212 0
70 -201 212 0
-212 0
-120 213 0
120 -213 0
-120 -214 0
120 -214 0
120 215 0
-214 215 0
-120 214 -215 0
-79 -215 -216 0
79 215 -216 0
-79 215 216 0
79 -215 216 0
-216 0
-117 217 0
117 -217 0
-117 -218 0
117 -218 0
117 219 0
-218 219 0
-117 218 -219 0
-81 -219 -220 0
81 219 -220 0
-81 219 220 0
81 -219 220 0
-220 0
-84 -209 -221 0
84 209 -221 0
-84 209 221 0
84 -209 221 0
-221 0
-87 -197 -222 0
87 197 -222 0
-87 197 222 0
87 -197 222 0
-222 0
-89 -201 -223 0
89 201 -223 0
-89 201 223 0
89 -201 223 0
-223 0
-123 224 0
123 -224 0
-123 -225 0
123 -225 0
123 226 0
-225 226 0
-123 225 -226 0
-94 -226 -227 0
94 226 -227 0
-94 226 227 0
94 -226 227 0
-227 0
-114 228 0
114 -228 0
-114 -229 0
114 -229 0
114 230 0
-229 230 0
-114 229 -230 0
-96 -230 -231 0
96 230 -231 0
-96 230 231 0
96 -230 231 0
-231 0
-103 -189 -232 0
103 189 -232 0
-103 189 232 0
103 -189 232 0
-232 0
-105 -193 -233 0
105 193 -233 0
-105 193 233 0
105 -193 233 0
-233 0
58 60 72 74 76 85 91 98 100 107 109 0
-234 -236 -238 0
234 236 -238 0
-234 236 238 0
234 -236 238 0
-235 -237 -239 0
235 237 -239 0
-235 237 239 0
235 -237 239 0
-238 -240 0
-239 -240 0
238 239 240 0
-110 240 0
110 -240 0
c __CPROVER_malloc_is_new_array#1 FALSE
c check::$tmp::tmp_if_expr$6!0@1#1 129
c goto_symex::\guard#1 1
c check::$tmp::tmp_if_expr$6!0@1#2 TRUE
c check::$tmp::tmp_if_expr$6!0@1#3 129
c check::$tmp::tmp_if_expr$6!0@1#4 130
c check::$tmp::tmp_if_expr$6!0@1#5 2
c check::$tmp::tmp_if_expr$5!0@1#1 135
c goto_symex::\guard#2 3
c check::$tmp::tmp_if_expr$5!0@1#2 TRUE
c check::$tmp::tmp_if_expr$5!0@1#3 135
c check::$tmp::tmp_if_expr$5!0@1#4 136
c check::$tmp::tmp_if_expr$5!0@1#5 6
c check::$tmp::tmp_if_expr$4!0@1#1 141
c goto_symex::\guard#3 8
c check::$tmp::tmp_if_expr$4!0@1#2 TRUE
c check::$tmp::tmp_if_expr$4!0@1#3 141
c check::$tmp::tmp_if_expr$4!0@1#4 142
c check::$tmp::tmp_if_expr$4!0@1#5 12
c check::$tmp::tmp_if_expr$3!0@1#1 147
c goto_symex::\guard#4 14
c check::$tmp::tmp_if_expr$3!0@1#2 TRUE
c check::$tmp::tmp_if_expr$3!0@1#3 147
c check::$tmp::tmp_if_expr$3!0@1#4 148
c check::$tmp::tmp_if_expr$3!0@1#5 18
c check::$tmp::tmp_if_expr$2!0@1#1 153
c goto_symex::\guard#5 20
c check::$tmp::tmp_if_expr$2!0@1#2 TRUE
c check::$tmp::tmp_if_expr$2!0@1#3 153
c check::$tmp::tmp_if_expr$2!0@1#4 154
c check::$tmp::tmp_if_expr$2!0@1#5 24
c check::$tmp::tmp_if_expr$1!0@1#1 159
c goto_symex::\guard#6 26
c check::$tmp::tmp_if_expr$1!0@1#2 TRUE
c check::$tmp::tmp_if_expr$1!0@1#3 159
c check::$tmp::tmp_if_expr$1!0@1#4 160
c check::$tmp::tmp_if_expr$1!0@1#5 30
c goto_symex::\guard#7 32
c goto_symex::\guard#8 35
c goto_symex::\guard#9 38
c goto_symex::\guard#10 41
c goto_symex::\guard#11 44
c goto_symex::\guard#12 46
c goto_symex::\guard#13 49
c goto_symex::\guard#14 51
c goto_symex::\guard#15 54
c goto_symex::\guard#16 56
c goto_symex::\guard#17 63
c goto_symex::\guard#18 65
c goto_symex::\guard#19 68
c goto_symex::\guard#20 70
c goto_symex::\guard#21 79
c goto_symex::\guard#22 81
c goto_symex::\guard#23 84
c goto_symex::\guard#24 87
c goto_symex::\guard#25 89
c goto_symex::\guard#26 94
c goto_symex::\guard#27 96
c goto_symex::\guard#28 103
c goto_symex::\guard#29 105
c check::1::x!0@1#1 111 112 113 114 115 116 117 118 119 120 121 122 123 124 125 126
c __CPROVER_thread_id!0#1 FALSE FALSE FALSE FALSE FALSE FALSE FALSE FALSE FALSE FALSE FALSE FALSE FALSE FALSE FALSE FALSE FALSE FALSE FALSE FALSE FALSE FALSE FALSE FALSE FALSE FALSE FALSE FALSE FALSE FALSE FALSE FALSE FALSE FALSE FALSE FALSE FALSE FALSE FALSE FALSE FALSE FALSE FALSE FALSE FALSE FALSE FALSE FALSE FALSE FALSE FALSE FALSE FALSE FALSE FALSE FALSE FALSE FALSE FALSE FALSE FALSE FALSE FALSE FALSE
c __CPROVER_rounding_mode!0#1 FALSE FALSE FALSE FALSE FALSE FALSE FALSE FALSE FALSE FALSE FALSE FALSE FALSE FALSE FALSE FALSE FALSE FALSE FALSE FALSE FALSE FALSE FALSE FALSE FALSE FALSE FALSE FALSE FALSE FALSE FALSE FALSE
c __CPROVER_pipe_count#1 FALSE FALSE FALSE FALSE FALSE FALSE FALSE FALSE FALSE FALSE FALSE FALSE FALSE FALSE FALSE FALSE FALSE FALSE FALSE FALSE FALSE FALSE FALSE FALSE FALSE FALSE FALSE FALSE FALSE FALSE FALSE FALSE
c __CPROVER_deallocated#1 FALSE FALSE FALSE FALSE FALSE FALSE FALSE FALSE FALSE FALSE FALSE FALSE FALSE FALSE FALSE FALSE FALSE FALSE FALSE FALSE FALSE FALSE FALSE FALSE FALSE FALSE FALSE FALSE FALSE FALSE FALSE FALSE FALSE FALSE FALSE FALSE FALSE FALSE FALSE FALSE FALSE FALSE FALSE FALSE FALSE FALSE FALSE FALSE FALSE FALSE FALSE FALSE FALSE FALSE FALSE FALSE FALSE FALSE FALSE FALSE FALSE FALSE FALSE FALSE
c __CPROVER_dead_object#1 FALSE FALSE FALSE FALSE FALSE FALSE FALSE FALSE FALSE FALSE FALSE FALSE FALSE FALSE FALSE FALSE FALSE FALSE FALSE FALSE FALSE FALSE FALSE FALSE FALSE FALSE FALSE FALSE FALSE FALSE FALSE FALSE FALSE FALSE FALSE FALSE FALSE FALSE FALSE FALSE FALSE FALSE FALSE FALSE FALSE FALSE FALSE FALSE FALSE FALSE FALSE FALSE FALSE FALSE FALSE FALSE FALSE FALSE FALSE FALSE FALSE FALSE FALSE FALSE
c __CPROVER_next_thread_id#1 FALSE FALSE FALSE FALSE FALSE FALSE FALSE FALSE FALSE FALSE FALSE FALSE FALSE FALSE FALSE FALSE FALSE FALSE FALSE FALSE FALSE FALSE FALSE FALSE FALSE FALSE FALSE FALSE FALSE FALSE FALSE FALSE FALSE FALSE FALSE FALSE FALSE FALSE FALSE FALSE FALSE FALSE FALSE FALSE FALSE FALSE FALSE FALSE FALSE FALSE FALSE FALSE FALSE FALSE FALSE FALSE FALSE FALSE FALSE FALSE FALSE FALSE FALSE FALSE
c __CPROVER_malloc_object#1 FALSE FALSE FALSE FALSE FALSE FALSE FALSE FALSE FALSE FALSE FALSE FALSE FALSE FALSE FALSE FALSE FALSE FALSE FALSE FALSE FALSE FALSE FALSE FALSE FALSE FALSE FALSE FALSE FALSE FALSE FALSE FALSE FALSE FALSE FALSE FALSE FALSE FALSE FALSE FALSE FALSE FALSE FALSE FALSE FALSE FALSE FALSE FALSE FALSE FALSE FALSE FALSE FALSE FALSE FALSE FALSE FALSE FALSE FALSE FALSE FALSE FALSE FALSE FALSE
c __CPROVER_malloc_size#1 FALSE FALSE FALSE FALSE FALSE FALSE FALSE FALSE FALSE FALSE FALSE FALSE FALSE FALSE FALSE FALSE FALSE FALSE FALSE FALSE FALSE FALSE FALSE FALSE FALSE FALSE FALSE FALSE FALSE FALSE FALSE FALSE FALSE FALSE FALSE FALSE FALSE FALSE FALSE FALSE FALSE FALSE FALSE FALSE FALSE FALSE FALSE FALSE FALSE FALSE FALSE FALSE FALSE FALSE FALSE FALSE FALSE FALSE FALSE FALSE FALSE FALSE FALSE FALSE
c __CPROVER_memory_leak#1 FALSE FALSE FALSE FALSE FALSE FALSE FALSE FALSE FALSE FALSE FALSE FALSE FALSE FALSE FALSE FALSE FALSE FALSE FALSE FALSE FALSE FALSE FALSE FALSE FALSE FALSE FALSE FALSE FALSE FALSE FALSE FALSE FALSE FALSE FALSE FALSE FALSE FALSE FALSE FALSE FALSE FALSE FALSE FALSE FALSE FALSE FALSE FALSE FALSE FALSE FALSE FALSE FALSE FALSE FALSE FALSE FALSE FALSE FALSE FALSE FALSE FALSE FALSE FALSE
